config:eval_tsp="2022-12-07 08:21:12"
config:arch=arch5
config:num_train_worker=6
config:num_sample_worker=2
config:sample_type=khop2
config:root_path=/nvme/samgraph/
config:dataset=papers100M-undir
config:pipeline=False
config:cache_policy=coll_cache_asymm_link
config:cache_percentage=0.1
config:num_epoch=4
config:batch_size=8000
config:num_hidden=256
config:max_sampling_jobs=1
config:max_copying_jobs=1
config:barriered_epoch=1
config:presample_epoch=2
config:omp_thread_num=6
config:unsupervised=False
config:amp=True
config:rolling=0
config:fanout=[25, 10]
config:lr=0.003
config:dropout=0.5
config:single_gpu=False
config:max_num_step=100000
config:validate_configs=False
config:report_acc=0
config:dataset_path=/nvme/samgraph/papers100M-undir
config:torch_thread_num=8
config:train_workers=['cuda:0', 'cuda:1', 'cuda:2', 'cuda:3', 'cuda:4', 'cuda:5']
config:sample_workers=['cuda:6', 'cuda:7']
config:num_fanout=2
config:num_layer=2
config:_run_mode=RunMode.FGNN
config:_log_level=warn
config:_profile_level=3
config:_empty_feat=0
config:_arch=5
config:_sample_type=5
config:_cache_policy=13
test_result:init:input_scale_factor=1.1
Set parameter WLSAccessID
Set parameter WLSSecret
Set parameter LicenseID
Set parameter TimeLimit to value 200
Set parameter MIPGap to value 0.05
Set parameter GomoryPasses to value 0
Set parameter Aggregate to value 0
Set parameter LogFile to value "cppsolver.log"
Set parameter Threads to value 12
Academic license - for non-commercial use only - registered to xiaoniu.sxn@sjtu.edu.cn
Gurobi Optimizer version 9.5.2 build v9.5.2rc0 (linux64)
Thread count: 48 physical cores, 96 logical processors, using up to 12 threads
Academic license - for non-commercial use only - registered to xiaoniu.sxn@sjtu.edu.cn
Optimize a model with 115974 rows, 25432 columns and 286830 nonzeros
Model fingerprint: 0xbbd83d88
Variable types: 7 continuous, 25425 integer (25425 binary)
Coefficient statistics:
  Matrix range     [2e-04, 2e+03]
  Objective range  [1e+00, 1e+00]
  Bounds range     [1e+00, 1e+00]
  RHS range        [1e+00, 7e+02]
Found heuristic solution: objective 2.000000e+09
Presolve removed 91535 rows and 0 columns
Presolve time: 0.29s
Presolved: 24439 rows, 25432 columns, 98680 nonzeros
Found heuristic solution: objective 25567.903205
Variable types: 7 continuous, 25425 integer (25425 binary)

Root simplex log...

Iteration    Objective       Primal Inf.    Dual Inf.      Time
   31056    7.1265296e+02   5.595477e+03   0.000000e+00      5s
   40153    7.2961460e+02   0.000000e+00   0.000000e+00      7s

Root relaxation: objective 7.296146e+02, 40153 iterations, 6.73 seconds (7.42 work units)
Total elapsed time = 10.18s

    Nodes    |    Current Node    |     Objective Bounds      |     Work
 Expl Unexpl |  Obj  Depth IntInf | Incumbent    BestBd   Gap | It/Node Time

     0     0  729.61460    0 9021 25567.9032  729.61460  97.1%     -   10s
H    0     0                    14635.983169  729.61460  95.0%     -   10s
H    0     0                    2664.9255079  729.61460  72.6%     -   10s
H    0     0                     747.0363944  729.61462  2.33%     -   14s
     0     0  729.61462    0 9013  747.03639  729.61462  2.33%     -   14s

Cutting planes:
  Zero half: 139

Explored 1 nodes (53512 simplex iterations) in 14.38 seconds (14.61 work units)
Thread count was 12 (of 96 available processors)

Solution count 5: 747.036 2664.93 14636 ... 2e+09

Optimal solution found (tolerance 5.00e-02)
Best objective 7.470363943759e+02, best bound 7.296146213872e+02, gap 2.3321%
coll_cache:optimal_local_rate=0.565162,0.44576,0.586404,0.458165,0.572361,0.552895,
coll_cache:optimal_remote_rate=0.432279,0.551681,0.411037,0.539276,0.425079,0.444546,
coll_cache:optimal_cpu_rate=0.00255909,0.00255909,0.00255909,0.00255909,0.00255909,0.00255909,
z=747.036
test_result:init:feat_nbytes=56862697472
test_result:init:cache_nbytes=5643644416
test_result:init:feat_nbytes=56862697472
test_result:init:cache_nbytes=5559220736
test_result:init:feat_nbytes=56862697472
test_result:init:cache_nbytes=5682359808
test_result:init:feat_nbytes=56862697472
test_result:init:cache_nbytes=5645117952
test_result:init:feat_nbytes=56862697472
test_result:init:cache_nbytes=5664881664
test_result:init:feat_nbytes=56862697472
test_result:init:cache_nbytes=5430116352
test_result:init:cache_nbytes=0
test_result:init:cache_nbytes=0
test_result:init:cache_nbytes=0
test_result:init:cache_nbytes=0
test_result:init:cache_nbytes=0
test_result:init:cache_nbytes=0
[Train  Worker 4/6] Started with PID 74605(Tesla V100-SXM2-32GB)
[Train  Worker 4] run train for 4 epochs with 156 steps
[Train  Worker 4] Avg Epoch Time 0.4602 | Train Total Time(Profiler) 0.2300 | Copy Time 0.2269
[Train  Worker 5/6] Started with PID 74608(Tesla V100-SXM2-32GB)
[Train  Worker 5] run train for 4 epochs with 156 steps
[Train  Worker 5] Avg Epoch Time 0.4602 | Train Total Time(Profiler) 0.2852 | Copy Time 0.1723
[Train  Worker 0/6] Started with PID 74593(Tesla V100-SXM2-32GB)
[Train  Worker 0] run train for 4 epochs with 156 steps
Epoch 00000 | Epoch Time 1.8755 | Total Train Time(Profiler) 1.6650 | Copy Time 0.2071
Epoch 00001 | Epoch Time 0.4618 | Total Train Time(Profiler) 0.2835 | Copy Time 0.1758
Epoch 00002 | Epoch Time 0.4601 | Total Train Time(Profiler) 0.2814 | Copy Time 0.1762
Epoch 00003 | Epoch Time 0.4587 | Total Train Time(Profiler) 0.2796 | Copy Time 0.1765
[Train  Worker 0] Avg Epoch Time 0.4602 | Train Total Time(Profiler) 0.2815 | Copy Time 0.1761
[Train  Worker 2/6] Started with PID 74599(Tesla V100-SXM2-32GB)
[Train  Worker 2] run train for 4 epochs with 156 steps
[Train  Worker 2] Avg Epoch Time 0.4601 | Train Total Time(Profiler) 0.2320 | Copy Time 0.2255
[Train  Worker 1/6] Started with PID 74596(Tesla V100-SXM2-32GB)
[Train  Worker 1] run train for 4 epochs with 156 steps
[Train  Worker 1] Avg Epoch Time 0.4602 | Train Total Time(Profiler) 0.2340 | Copy Time 0.2235
[Train  Worker 3/6] Started with PID 74602(Tesla V100-SXM2-32GB)
[Train  Worker 3] run train for 4 epochs with 156 steps
[Train  Worker 3] Avg Epoch Time 0.4602 | Train Total Time(Profiler) 0.2301 | Copy Time 0.2268
[Sample Worker 1/2] Started with PID 74591(Tesla V100-SXM2-32GB)
[Sample Worker 1] run sample for 4 epochs with 78 steps
[Sample Worker 1] Avg Sample Total Time 0.5954 | Sampler Total Time(Profiler) 0.5943
    [Step(average) Profiler Level 1 E3 S77]
        L1  sample           0.006174 | send           0.001484
        L1  recv             0.000000 | copy           0.000000 | convert time 0.000000 | train  0.000000
        L1  feature nbytes 0.00 Bytes | label nbytes 0.00 Bytes
        L1  id nbytes      0.00 Bytes | graph nbytes 0.00 Bytes
        L1  miss nbytes    0.00 Bytes | remote nbytes 0.00 Bytes
        L1  num nodes         1099525 | num samples     1708718
    [Step(average) Profiler Level 2 E3 S77]
        L2  shuffle     0.000546 | core sample  0.002130 | id remap        0.003383
        L2  graph copy  0.000000 | id copy      0.000000 | cache feat copy 0.000000
        L2  last layer sample time 0.000364 | size 72314.405983
    [Step(average) Profiler Level 3 E3 S77]
        L3  khop sample coo  0.001793 | khop sort coo      0.000000 | khop count edge     0.000045 | khop compact edge 0.000249
        L3  walk sample coo  0.000000 | walk topk total    0.000000 | walk topk step1     0.000000 | walk topk step2   0.000000
        L3  walk topk step3  0.000000 | walk topk step4    0.000000 | walk topk step5     0.000000
        L3  walk topk step6  0.000000 | walk topk step7    0.000000
        L3  remap unique     0.000000 | remap populate     0.002762 | remap mapnode       0.000000 | remap mapedge     0.000620
        L3  cache get_index  0.000000 | cache copy_index   0.000000 | cache extract_miss  0.000000
        L3  cache copy_miss  0.000000 | cache combine_miss 0.000000 | cache combine cache 0.000000 | cache combine remote 0.000000
        L3  label extract  0.000000
    [Init Profiler Level 1]
        L1  init     7.2835 | sampler init    15.9449 | trainer init 0.0000
    [Init Profiler Level 2]
        L2  load ds         9.7077 | init queue           5.5263
        L2  presample       5.5389 | build interal ds     2.4516
        L2  build cache     0.0000
    [Init Profiler Level 3]
        L3  load dataset: mmap     7.2787 | copy         2.4289
        L3  dist queue: alloc      0.0018 | pin          5.5245 | push     0.0000
        L3  presample: init        0.3881
        L3  presample: sample      1.8077 | copy         0.1147
        L3  presample: count       2.5848 | sort         0.2127
        L3  presample: reset       0.0006 | get rank     0.0242
        L3  internal: cuda ctx     2.1737 | cuda stream     0.2721
[Sample Worker 0/2] Started with PID 74590(Tesla V100-SXM2-32GB)
[Sample Worker 0] run sample for 4 epochs with 78 steps
[Sample Worker 0] Avg Sample Total Time 0.5981 | Sampler Total Time(Profiler) 0.5973
test_result:sample_time=0.4816
test_result:get_cache_miss_index_time=0.0000
test_result:enqueue_samples_time=0.1157
test_result:epoch_time:sample_total=0.5981
[CUDA] cuda0: usage: 11.71 GB
[SAM] cuda0 data alloc        : 0.00 Bytes
[SAM] cuda0 workspace         : 1.23 GB
[SAM] cuda0 workspace reserve : 620.71 MB
[SAM] cuda0 total             : 1.23 GB
    [Step(average) Profiler Level 1 E3 S155]
        L1  sample           0.000000 | send           0.000000
        L1  recv             0.002705 | copy           0.008019 | convert time 0.000423 | train  0.009148
        L1  feature nbytes  536.86 MB | label nbytes   62.50 KB
        L1  id nbytes      0.00 Bytes | graph nbytes 0.00 Bytes
        L1  miss nbytes       8.93 MB | remote nbytes  246.77 MB
        L1  num nodes               0 | num samples           0
    [Step(average) Profiler Level 2 E3 S155]
        L2  shuffle     0.000000 | core sample  0.000000 | id remap        0.000000
        L2  graph copy  0.000004 | id copy      0.000000 | cache feat copy 0.005310
        L2  last layer sample time 0.000000 | size 0.000000
    [Step(average) Profiler Level 3 E3 S155]
        L3  khop sample coo  0.000000 | khop sort coo      0.000000 | khop count edge     0.000000 | khop compact edge 0.000000
        L3  walk sample coo  0.000000 | walk topk total    0.000000 | walk topk step1     0.000000 | walk topk step2   0.000000
        L3  walk topk step3  0.000000 | walk topk step4    0.000000 | walk topk step5     0.000000
        L3  walk topk step6  0.000000 | walk topk step7    0.000000
        L3  remap unique     0.000000 | remap populate     0.000000 | remap mapnode       0.000000 | remap mapedge     0.000000
        L3  cache get_index  0.000807 | cache copy_index   0.000000 | cache extract_miss  0.000000
        L3  cache copy_miss  0.000000 | cache combine_miss 0.002866 | cache combine cache 0.001042 | cache combine remote 0.002906
        L3  label extract  0.000543
    [Init Profiler Level 1]
        L1  init     7.2835 | sampler init     0.0000 | trainer init 79.8919
    [Init Profiler Level 2]
        L2  load ds         7.2787 | init queue           5.4639
        L2  presample       0.0000 | build interal ds     2.1349
        L2  build cache    72.2871
    [Init Profiler Level 3]
        L3  load dataset: mmap     7.2787 | copy         0.0000
        L3  dist queue: alloc      0.0018 | pin          5.4621 | push     0.0000
        L3  presample: init        0.0000
        L3  presample: sample      0.0000 | copy         0.0000
        L3  presample: count       0.0000 | sort         0.0000
        L3  presample: reset       0.0000 | get rank     0.0000
        L3  internal: cuda ctx     2.1348 | cuda stream     0.0001
|===========================================================================|
|                  PyTorch CUDA memory summary, device ID 0                 |
|---------------------------------------------------------------------------|
|            CUDA OOMs: 0            |        cudaMalloc retries: 0         |
|===========================================================================|
|        Metric         | Cur Usage  | Peak Usage | Tot Alloc  | Tot Freed  |
|---------------------------------------------------------------------------|
| Allocated memory      |   22833 KB |  403145 KB |  145104 MB |  145081 MB |
|       from large pool |   18159 KB |  399759 KB |  144026 MB |  144008 MB |
|       from small pool |    4674 KB |    7117 KB |    1077 MB |    1073 MB |
|---------------------------------------------------------------------------|
| Active memory         |   22833 KB |  403145 KB |  145104 MB |  145081 MB |
|       from large pool |   18159 KB |  399759 KB |  144026 MB |  144008 MB |
|       from small pool |    4674 KB |    7117 KB |    1077 MB |    1073 MB |
|---------------------------------------------------------------------------|
| GPU reserved memory   |  577536 KB |  577536 KB |  577536 KB |       0 B  |
|       from large pool |  569344 KB |  569344 KB |  569344 KB |       0 B  |
|       from small pool |    8192 KB |    8192 KB |    8192 KB |       0 B  |
|---------------------------------------------------------------------------|
| Non-releasable memory |   24270 KB |  368974 KB |  171547 MB |  171524 MB |
|       from large pool |   22801 KB |  367151 KB |  170316 MB |  170294 MB |
|       from small pool |    1469 KB |    3623 KB |    1231 MB |    1230 MB |
|---------------------------------------------------------------------------|
| Allocations           |      38    |      51    |   11583    |   11545    |
|       from large pool |       3    |      14    |    4576    |    4573    |
|       from small pool |      35    |      39    |    7007    |    6972    |
|---------------------------------------------------------------------------|
| Active allocs         |      39    |      51    |   11583    |   11544    |
|       from large pool |       3    |      14    |    4576    |    4573    |
|       from small pool |      36    |      39    |    7007    |    6971    |
|---------------------------------------------------------------------------|
| GPU reserved segments |      13    |      13    |      13    |       0    |
|       from large pool |       9    |       9    |       9    |       0    |
|       from small pool |       4    |       4    |       4    |       0    |
|---------------------------------------------------------------------------|
| Non-releasable allocs |      14    |      24    |    5280    |    5266    |
|       from large pool |       4    |      12    |    2605    |    2601    |
|       from small pool |      10    |      15    |    2675    |    2665    |
|---------------------------------------------------------------------------|
| Oversize allocations  |       0    |       0    |       0    |       0    |
|---------------------------------------------------------------------------|
| Oversize GPU segments |       0    |       0    |       0    |       0    |
|===========================================================================|

test_result:epoch_time:copy_time=0.1761
test_result:convert_time=0.0109
test_result:train_time=0.2706
test_result:epoch_time:train_total=0.2815
test_result:cache_percentage=0.1000
test_result:cache_hit_rate=1.0000
test_result:run_time=5.6646
